24
18 22
18 5
18 15
18 13
18 8
22 23
22 19
22 15
22 1
8 13
8 20
8 11
8 21
13 5
13 4
13 14
10 11
10 17
10 15
10 0
10 4
11 14
11 19
11 15
17 1
17 12
17 9
17 4
23 21
23 20
23 19
23 12
7 12
7 16
7 20
7 14
7 9
12 1
12 19
5 0
5 3
5 16
1 6
1 20
15 0
6 14
6 3
6 2
6 16
0 19
0 2
16 21
16 3
21 9
21 2
14 3
2 4
2 20
4 9
3 9
